\ Model bilinear_copy
\ LP format - for model browsing. Use MPS format to capture full model detail.
Minimize
 
Subject To
 R325: m_q_mp13 = 162162.1620888183
 R405: 162162.1620888183 t_q_mp_r13 = 1.1280380595895993e+06
 R1492: - 6.956234703881425 m_q_mp13 + H_q_mp_mp_r13 <= 0
 qc0: H_q_mp_mp_r13 + [ - m_q_mp13 * t_q_mp_r13 ] = 0
Bounds
 m_q_mp13 free
 t_q_mp_r13 free
 H_q_mp_mp_r13 free
End
